nRows = 9;
nCols = 10;

g = [
	[0,0,0,0,0,0,0,0,0,0],
	[0,0,0,0,1,1,1,1,1,0],
	[0,0,0,0,1,1,1,1,1,0],
	[0,1,1,1,1,1,1,1,1,0],
	[0,1,1,1,1,1,1,1,1,0],
	[0,1,1,1,1,1,1,1,1,0],
	[0,1,1,1,1,1,1,0,0,0],
	[0,1,1,1,1,1,1,0,0,0],
	[0,0,0,0,0,0,0,0,0,0]
];

nRectangle = 3;
rect_array = [
	<5,5,3>,
	<6,5,2>,
	<3,6,2>
];